====================================================================================================================
File name: 200_10_135_9_D6.def
Creation date: Tue Nov 25 16:29:03 CET 2014
Website: http://imopse.ii.pwr.edu.pl/
Reference:
Myszkowski P. B., Skowronski M. E., Olech L., Oslizlo K.,
Hybrid Ant Colony Optimization in solving Multi-Skill Resource-Constrained Project Scheduling Problem,
Soft Computing, DOI: DOI 10.1007/s00500-014-1455-x
====================================================================================================================
====================================================================================================================
=====================================================IMPORTANT======================================================
====================================================================================================================
Lacking task identifiers is a result of transforming definitions from MPP to DEF format.
Those lacking ids reflects to the summary tasks, available in MS Project definition that have been removed here.
 Therefore number of precedence relations increased, as relations between summary task had to be multiplied
to all tasks that were included into summary ones. Both file definition formats are compatible with each other.
====================================================================================================================
The file is free from calendar restrictions, typical for .mpp format
====================================================================================================================
General characteristics:
Tasks: 161
Resources: 10
Precedence relations: 321
Number of skill types: 9
====================================================================================================================
ResourceID 	 Salary 	 Skills
1	 	 	14.2	 	 Q2: 0 	  Q3: 2 	  Q1: 0 	  Q4: 2 	  Q7: 1 	  Q8: 2
2	 	 	31.2	 	 Q0: 0 	  Q4: 2 	  Q7: 1 	  Q3: 1 	  Q8: 2 	  Q2: 0
3	 	 	34.4	 	 Q4: 0 	  Q2: 1 	  Q6: 2 	  Q3: 1 	  Q0: 1 	  Q5: 0
4	 	 	26.0	 	 Q5: 2 	  Q1: 1 	  Q4: 1 	  Q8: 2 	  Q0: 2 	  Q2: 2
5	 	 	30.8	 	 Q8: 0 	  Q7: 1 	  Q3: 1 	  Q1: 2 	  Q4: 1 	  Q5: 1
6	 	 	17.3	 	 Q6: 1 	  Q3: 2 	  Q4: 2 	  Q2: 0 	  Q7: 2 	  Q1: 0
7	 	 	19.8	 	 Q1: 2 	  Q4: 2 	  Q5: 0 	  Q7: 1 	  Q3: 1 	  Q6: 2
8	 	 	35.8	 	 Q2: 1 	  Q0: 1 	  Q3: 2 	  Q6: 0 	  Q7: 0 	  Q8: 1
9	 	 	37.6	 	 Q7: 0 	  Q5: 2 	  Q2: 0 	  Q1: 0 	  Q0: 1 	  Q3: 1
10	 	 	23.5	 	 Q8: 1 	  Q5: 1 	  Q1: 2 	  Q6: 0 	  Q4: 0 	  Q3: 2
====================================================================================================================
TaskID 	 Duration 	 Skill 	 Predecessor IDs
1	 	 	11	 Q8: 1
2	 	 	12	 Q6: 1
3	 	 	9	 Q5: 2	 	2
4	 	 	24	 Q7: 1
7	 	 	40	 Q2: 2
8	 	 	26	 Q3: 2	 	7
9	 	 	32	 Q8: 2	 	8
10	 	 	34	 Q5: 1	 	9
12	 	 	34	 Q1: 0
13	 	 	31	 Q2: 1
14	 	 	14	 Q0: 1
15	 	 	38	 Q7: 1	 	14
16	 	 	27	 Q3: 1
17	 	 	34	 Q6: 0
18	 	 	24	 Q2: 0
19	 	 	37	 Q6: 1	 	18
20	 	 	20	 Q5: 2	 	19
21	 	 	18	 Q3: 1
22	 	 	18	 Q0: 1	 	21
23	 	 	18	 Q4: 1	 	22
24	 	 	13	 Q1: 1	 	23
25	 	 	34	 Q1: 1
26	 	 	36	 Q7: 2
27	 	 	33	 Q5: 0
28	 	 	16	 Q2: 1
29	 	 	36	 Q7: 1	 	28
30	 	 	12	 Q2: 0	 	17	29
31	 	 	39	 Q1: 0
35	 	 	31	 Q7: 0	 	21	17	31
36	 	 	19	 Q2: 2	 	20	17	31
38	 	 	21	 Q4: 1	 	36	30	31	17
39	 	 	27	 Q3: 2	 	38	36	30	31	17
40	 	 	24	 Q7: 0	 	39	31
41	 	 	20	 Q5: 0	 	31
42	 	 	11	 Q4: 1	 	41	25	31
43	 	 	22	 Q6: 0	 	25	31
44	 	 	23	 Q2: 0	 	43	25	31
47	 	 	19	 Q0: 1	 	40	31
48	 	 	24	 Q3: 1	 	30	40	31
49	 	 	35	 Q3: 1	 	31
50	 	 	21	 Q4: 0	 	31
52	 	 	29	 Q5: 2	 	50	31
55	 	 	12	 Q7: 2	 	42	31	50
56	 	 	15	 Q1: 1	 	55	31	50
57	 	 	35	 Q8: 0	 	31	50
58	 	 	23	 Q3: 1	 	55	52	50
60	 	 	18	 Q4: 1	 	58	57	31	50
61	 	 	21	 Q3: 2	 	58	57	31	50
62	 	 	17	 Q1: 1	 	61	31
64	 	 	10	 Q7: 2	 	62	47
65	 	 	27	 Q5: 2	 	64	62	47
66	 	 	19	 Q1: 2	 	65
67	 	 	14	 Q6: 1	 	66
70	 	 	26	 Q6: 0	 	67
71	 	 	21	 Q7: 2	 	67
72	 	 	10	 Q1: 2	 	71	67
73	 	 	20	 Q2: 0	 	72	70	67
74	 	 	24	 Q0: 1	 	73	67
77	 	 	27	 Q7: 1	 	67
78	 	 	24	 Q8: 2	 	77	67
79	 	 	25	 Q0: 1	 	67
80	 	 	13	 Q1: 2	 	67
81	 	 	28	 Q6: 0	 	70	67
82	 	 	9	 Q2: 0	 	81	67
84	 	 	39	 Q0: 2	 	79	82
85	 	 	20	 Q1: 1	 	82
86	 	 	19	 Q0: 0
87	 	 	22	 Q7: 2
88	 	 	40	 Q5: 2
89	 	 	23	 Q5: 0	 	88	85
90	 	 	28	 Q2: 2	 	89
91	 	 	39	 Q4: 0
92	 	 	24	 Q7: 0
93	 	 	33	 Q1: 2
94	 	 	38	 Q5: 1
95	 	 	28	 Q0: 1
96	 	 	19	 Q5: 2
97	 	 	19	 Q6: 1	 	95	96
98	 	 	21	 Q1: 0
99	 	 	31	 Q0: 0	 	98
100	 	 	14	 Q2: 1	 	99
101	 	 	19	 Q8: 0	 	93
102	 	 	36	 Q4: 1	 	101
103	 	 	24	 Q6: 0
104	 	 	33	 Q2: 0	 	103
105	 	 	33	 Q2: 1	 	104
106	 	 	34	 Q1: 0
107	 	 	17	 Q3: 1	 	106
108	 	 	27	 Q8: 2
109	 	 	23	 Q6: 2
110	 	 	27	 Q4: 0
111	 	 	12	 Q4: 1
112	 	 	33	 Q4: 1	 	111
115	 	 	32	 Q8: 1	 	95
116	 	 	38	 Q1: 2	 	115	95
117	 	 	22	 Q8: 2	 	106	116	95
118	 	 	15	 Q2: 0	 	95
119	 	 	14	 Q0: 0	 	118	95
120	 	 	13	 Q1: 1	 	119
123	 	 	25	 Q8: 1	 	120
124	 	 	34	 Q1: 0	 	123	120
125	 	 	34	 Q6: 1	 	108	107	120
126	 	 	20	 Q8: 1	 	125	120
127	 	 	17	 Q8: 1	 	126	120
128	 	 	25	 Q0: 1	 	120
129	 	 	15	 Q2: 0	 	128
130	 	 	28	 Q6: 0	 	129
131	 	 	22	 Q6: 2
132	 	 	28	 Q6: 2	 	131	116
133	 	 	12	 Q6: 1	 	123
135	 	 	14	 Q7: 0	 	133	127
136	 	 	22	 Q5: 0	 	135	133	127
137	 	 	30	 Q3: 2	 	133	127
139	 	 	27	 Q1: 2	 	137	133	127
141	 	 	35	 Q5: 2	 	139	133	127	137
142	 	 	25	 Q1: 2	 	139	133	127	137
143	 	 	38	 Q6: 2
144	 	 	26	 Q4: 0	 	130	126
145	 	 	19	 Q0: 0	 	144
146	 	 	36	 Q6: 0	 	145
151	 	 	22	 Q7: 1	 	146
152	 	 	32	 Q2: 0	 	146
153	 	 	27	 Q6: 1	 	146
154	 	 	38	 Q5: 1	 	153	146
155	 	 	18	 Q7: 0	 	154	146
156	 	 	17	 Q3: 1	 	155
157	 	 	31	 Q5: 2	 	156
158	 	 	25	 Q2: 1
160	 	 	33	 Q5: 2	 	146	158	151
161	 	 	29	 Q7: 2	 	157	158	151
162	 	 	17	 Q7: 2	 	161	158	151
166	 	 	34	 Q6: 1	 	158	151	145	146
167	 	 	18	 Q5: 1	 	166	158	151	145	146
168	 	 	37	 Q8: 2	 	167	158	151	145	146
170	 	 	24	 Q7: 2	 	158	151	145	146
171	 	 	26	 Q6: 1	 	170	158	151	145	146
173	 	 	28	 Q2: 2	 	161	171	158	151	145	146
174	 	 	36	 Q2: 1	 	168	173	171	158	151	145	146
175	 	 	13	 Q7: 1	 	174	158	151	145	146
176	 	 	38	 Q4: 2	 	158	151	145	146
177	 	 	32	 Q7: 2	 	162	176	158	151	145	146
178	 	 	10	 Q8: 0	 	166	158	151	145	146
179	 	 	29	 Q8: 2	 	178	158	151	145	146
181	 	 	21	 Q7: 2	 	158	151	145	146
182	 	 	34	 Q0: 2	 	158	151	145	146
184	 	 	10	 Q5: 1	 	158	151	145	146
185	 	 	27	 Q3: 2	 	158	151	145	146
187	 	 	20	 Q5: 2	 	177	175	179	158	151	145	146
188	 	 	28	 Q6: 0	 	187	158	151	145	146
189	 	 	30	 Q8: 0	 	188	158	151	145	146
190	 	 	36	 Q4: 2	 	158	151	145	146
191	 	 	14	 Q0: 0	 	190	158	151	145	146
193	 	 	18	 Q1: 1	 	191	158	151	145	146
194	 	 	21	 Q4: 0	 	193	191	158	151	145	146
195	 	 	27	 Q1: 0	 	194	158	151	145	146
196	 	 	29	 Q1: 2	 	195	158	151	145	146
197	 	 	23	 Q4: 0	 	185	158	151	145	146
199	 	 	19	 Q0: 1	 	158	151	145	146
200	 	 	18	 Q3: 1	 	158	151	145	146
201	 	 	33	 Q5: 1	 	158	151	145	146
202	 	 	14	 Q7: 0	 	145	146	158	151
====================================================================================================================
